S = 6;
start = [|0,20,0,0,0,0,21,0,0,0,0,0,0,0,0,0,0,0,2,9,0,0,0,0,0,0,0,0,0,0,0,0,0,0,0,0|
0,0,0,34,33,0,35,0,27,0,32,0,0,17,0,0,0,0,0,0,0,19,0,0,0,0,0,0,0,0,0,0,11,8,0,3|
0,0,0,0,11,0,0,0,0,0,0,0,0,0,0,0,0,28,26,0,0,0,0,0,16,0,0,20,0,15,0,0,0,0,0,0|
0,0,14,0,0,0,23,0,15,0,20,0,6,0,0,0,0,0,0,0,0,0,0,0,0,0,0,0,0,0,34,0,0,0,0,0|
0,0,0,0,0,0,0,0,0,0,0,0,0,0,34,0,0,0,28,0,0,0,0,0,0,22,0,0,0,0,0,0,0,0,0,0|
0,0,0,36,35,0,0,0,0,0,0,0,0,0,0,0,0,0,0,0,0,0,0,0,0,12,0,0,0,0,0,0,0,0,0,0|
0,0,0,0,0,9,0,0,5,0,4,0,0,0,0,0,0,0,0,0,0,0,29,0,0,0,19,0,0,0,0,0,0,16,14,0|
5,0,0,0,0,0,7,0,0,0,0,0,0,0,0,0,0,0,0,0,0,0,0,0,0,0,0,0,0,0,0,0,0,0,0,0|
0,0,0,0,0,0,0,0,0,18,0,0,0,0,0,0,0,0,0,0,0,0,0,0,0,27,0,0,0,31,0,0,0,0,0,0|
35,0,0,0,0,0,0,0,0,30,0,26,0,0,0,0,19,0,0,0,0,0,0,0,0,0,0,0,0,0,0,0,0,4,2,0|
0,0,18,14,0,0,0,0,23,24,0,20,0,0,0,0,0,0,0,7,0,0,0,8,36,0,0,0,0,29,25,0,0,0,0,0|
0,0,0,0,0,0,0,0,0,0,0,0,0,0,0,0,0,0,0,0,22,0,0,0,0,0,0,0,0,0,0,9,0,0,0,0|
0,0,0,0,0,0,0,0,0,0,0,0,0,0,0,16,0,0,13,0,0,0,0,0,0,0,0,7,0,0,0,0,0,0,0,2|
0,17,0,0,0,0,24,0,0,0,0,0,5,0,0,0,0,0,0,0,0,0,0,0,0,0,0,0,0,0,31,0,0,0,0,0|
0,0,0,0,24,20,0,18,0,0,17,21,0,0,0,0,0,0,0,0,0,0,0,0,0,0,0,0,0,0,0,0,0,0,0,0|
0,0,1,0,0,0,0,0,0,0,0,0,0,30,0,0,34,0,0,0,0,32,0,0,0,21,0,0,0,0,0,0,24,0,0,0|
0,0,0,0,0,0,0,0,0,0,5,0,0,0,0,0,0,0,0,0,0,0,26,33,15,0,0,19,0,0,0,0,0,0,0,0|
0,0,0,0,0,0,0,0,0,0,0,0,0,0,0,0,0,0,0,0,19,0,16,0,1,0,0,0,0,0,0,0,0,7,0,0|
0,0,0,0,0,0,29,0,0,0,0,30,0,0,16,0,0,0,0,0,0,0,0,0,0,0,3,0,0,0,0,0,0,12,0,0|
19,0,0,0,0,0,0,0,0,0,0,0,0,0,0,0,0,0,0,0,0,0,0,0,0,0,32,0,0,0,0,0,0,0,0,0|
0,0,0,0,0,0,15,0,0,0,14,0,0,0,0,9,0,0,0,3,0,0,0,0,0,28,0,0,0,0,0,0,36,0,0,0|
0,0,0,0,0,0,0,0,0,8,0,0,0,0,0,0,29,0,0,0,0,0,31,0,0,18,17,0,0,0,0,0,0,0,0,0|
0,0,0,0,0,0,0,0,0,0,0,28,24,0,0,0,0,0,0,0,0,0,0,0,0,0,0,0,0,9,0,0,0,0,0,0|
0,0,0,0,0,1,0,0,0,0,0,0,0,0,0,0,0,0,0,0,0,0,0,0,0,0,0,0,0,0,22,0,0,0,0,0|
0,0,0,0,0,0,0,0,0,21,0,0,0,0,0,0,0,0,0,0,0,0,0,0,0,0,0,0,29,28,0,0,0,0,0,35|
0,0,0,0,0,0,0,0,0,0,0,0,0,0,15,0,0,0,0,0,0,0,22,0,0,0,0,0,0,8,0,0,0,0,5,0|
10,0,0,0,0,0,0,0,0,0,0,3,0,0,0,0,0,0,31,28,0,0,0,0,21,0,0,0,0,0,0,0,0,0,0,0|
0,0,0,3,4,0,6,0,0,0,0,0,0,0,0,0,0,0,0,30,0,0,0,0,0,0,0,0,0,20,0,0,0,0,0,0|
0,0,0,0,0,24,0,14,20,0,0,15,0,0,5,0,6,0,0,0,0,0,0,0,0,0,0,0,0,0,0,0,0,0,0,0|
0,0,0,0,0,0,0,0,0,0,0,0,0,24,17,0,0,0,19,0,0,0,0,0,9,5,0,0,0,0,7,0,0,0,0,0|
0,0,0,0,0,28,0,0,36,0,33,0,0,16,13,18,0,0,0,0,0,0,0,0,0,0,0,0,0,0,0,10,8,0,0,0|
0,0,0,0,0,0,20,0,0,0,0,0,3,0,0,6,0,0,0,8,0,0,12,0,0,0,0,29,0,0,0,0,0,0,0,0|
0,0,0,0,0,0,0,16,18,0,15,0,0,0,0,0,8,0,0,2,0,0,6,0,0,0,0,30,31,0,0,35,25,0,0,0|
0,0,0,0,0,34,0,0,0,0,0,0,21,0,0,0,0,0,0,0,0,0,0,0,0,0,0,0,0,0,0,0,0,0,0,0|
0,0,5,0,0,0,0,0,0,0,0,0,0,0,0,0,0,0,0,0,0,0,0,0,0,0,0,0,0,0,0,0,0,0,0,0|
0,0,11,0,0,0,0,4,0,0,0,1,0,0,31,0,32,0,0,0,0,0,0,0,0,0,0,0,0,0,0,16,0,0,0,0|];